(declare-fun cmp195.not.i.i_26_101 () (_ BitVec 1))
(declare-fun narrow_26_103 () (_ BitVec 1))
(declare-fun cmp192.i.i_26_100 () (_ BitVec 1))
(declare-fun i141.i.i_26_98 () (_ BitVec 64))
(declare-fun i135.i.i_26_97 () (_ BitVec 64))
(declare-fun i143.i.i_26_99 () (_ BitVec 64))
(declare-fun i133.i.i_26_96 () (_ BitVec 64))
(declare-fun src_reg_26_25 () (_ BitVec 64))
(declare-fun src_reg_26_24 () (_ BitVec 64))
(declare-fun dst_reg_26_7 () (_ BitVec 64))
(declare-fun dst_reg_26_6 () (_ BitVec 64))
(declare-fun i30.i32_26_95 () (_ BitVec 32))
(declare-fun src_reg_26_29 () (_ BitVec 32))
(declare-fun i29.i29_26_94 () (_ BitVec 32))
(declare-fun src_reg_26_28 () (_ BitVec 32))
(declare-fun i28.i26_26_93 () (_ BitVec 32))
(declare-fun src_reg_26_27 () (_ BitVec 32))
(declare-fun i27.i23_26_92 () (_ BitVec 32))
(declare-fun src_reg_26_26 () (_ BitVec 32))
(declare-fun i26.i20_26_91 () (_ BitVec 64))
(declare-fun i25.i17_26_90 () (_ BitVec 64))
(declare-fun i24.i14_26_89 () (_ BitVec 64))
(declare-fun src_reg_26_23 () (_ BitVec 64))
(declare-fun i23.i11_26_88 () (_ BitVec 64))
(declare-fun src_reg_26_22 () (_ BitVec 64))
(declare-fun i22.i8_26_87 () (_ BitVec 64))
(declare-fun src_reg_26_21 () (_ BitVec 64))
(declare-fun i21.i5_26_86 () (_ BitVec 64))
(declare-fun src_reg_26_20 () (_ BitVec 64))
(declare-fun i.i2_26_85 () (_ BitVec 32))
(declare-fun i30.i_26_84 () (_ BitVec 32))
(declare-fun dst_reg_26_11 () (_ BitVec 32))
(declare-fun i29.i_26_83 () (_ BitVec 32))
(declare-fun dst_reg_26_10 () (_ BitVec 32))
(declare-fun i28.i_26_82 () (_ BitVec 32))
(declare-fun dst_reg_26_9 () (_ BitVec 32))
(declare-fun i27.i_26_81 () (_ BitVec 32))
(declare-fun dst_reg_26_8 () (_ BitVec 32))
(declare-fun i26.i_26_80 () (_ BitVec 64))
(declare-fun i25.i_26_79 () (_ BitVec 64))
(declare-fun i24.i_26_78 () (_ BitVec 64))
(declare-fun dst_reg_26_5 () (_ BitVec 64))
(declare-fun i23.i_26_77 () (_ BitVec 64))
(declare-fun dst_reg_26_4 () (_ BitVec 64))
(declare-fun i22.i_26_76 () (_ BitVec 64))
(declare-fun dst_reg_26_3 () (_ BitVec 64))
(declare-fun i21.i_26_75 () (_ BitVec 64))
(declare-fun dst_reg_26_2 () (_ BitVec 64))
(declare-fun i.i_26_74 () (_ BitVec 32))
(declare-fun other_branch_src_reg_26_71 () (_ BitVec 8))
(declare-fun other_branch_src_reg_26_70 () (_ BitVec 32))
(declare-fun other_branch_src_reg_26_69 () (_ BitVec 32))
(declare-fun other_branch_src_reg_26_68 () (_ BitVec 32))
(declare-fun other_branch_src_reg_26_67 () (_ BitVec 32))
(declare-fun other_branch_src_reg_26_66 () (_ BitVec 32))
(declare-fun other_branch_src_reg_26_65 () (_ BitVec 32))
(declare-fun other_branch_src_reg_26_64 () (_ BitVec 32))
(declare-fun other_branch_src_reg_26_63 () (_ BitVec 32))
(declare-fun other_branch_src_reg_26_62 () (_ BitVec 32))
(declare-fun other_branch_src_reg_26_61 () (_ BitVec 64))
(declare-fun other_branch_src_reg_26_60 () (_ BitVec 64))
(declare-fun other_branch_src_reg_26_59 () (_ BitVec 64))
(declare-fun other_branch_src_reg_26_58 () (_ BitVec 64))
(declare-fun other_branch_src_reg_26_57 () (_ BitVec 64))
(declare-fun other_branch_src_reg_26_56 () (_ BitVec 64))
(declare-fun other_branch_src_reg_26_55 () (_ BitVec 32))
(declare-fun other_branch_src_reg_26_54 () (_ BitVec 32))
(declare-fun other_branch_dst_reg_26_53 () (_ BitVec 8))
(declare-fun other_branch_dst_reg_26_52 () (_ BitVec 32))
(declare-fun other_branch_dst_reg_26_51 () (_ BitVec 32))
(declare-fun other_branch_dst_reg_26_50 () (_ BitVec 32))
(declare-fun other_branch_dst_reg_26_49 () (_ BitVec 32))
(declare-fun other_branch_dst_reg_26_48 () (_ BitVec 32))
(declare-fun other_branch_dst_reg_26_47 () (_ BitVec 32))
(declare-fun other_branch_dst_reg_26_46 () (_ BitVec 32))
(declare-fun other_branch_dst_reg_26_45 () (_ BitVec 32))
(declare-fun other_branch_dst_reg_26_44 () (_ BitVec 32))
(declare-fun other_branch_dst_reg_26_43 () (_ BitVec 64))
(declare-fun other_branch_dst_reg_26_42 () (_ BitVec 64))
(declare-fun other_branch_dst_reg_26_41 () (_ BitVec 64))
(declare-fun other_branch_dst_reg_26_40 () (_ BitVec 64))
(declare-fun other_branch_dst_reg_26_39 () (_ BitVec 64))
(declare-fun other_branch_dst_reg_26_38 () (_ BitVec 64))
(declare-fun other_branch_dst_reg_26_37 () (_ BitVec 32))
(declare-fun other_branch_dst_reg_26_36 () (_ BitVec 32))
(declare-fun src_reg_26_35 () (_ BitVec 8))
(declare-fun src_reg_26_34 () (_ BitVec 32))
(declare-fun src_reg_26_33 () (_ BitVec 32))
(declare-fun src_reg_26_32 () (_ BitVec 32))
(declare-fun src_reg_26_31 () (_ BitVec 32))
(declare-fun src_reg_26_30 () (_ BitVec 32))
(declare-fun src_reg_26_19 () (_ BitVec 32))
(declare-fun src_reg_26_18 () (_ BitVec 32))
(declare-fun dst_reg_26_17 () (_ BitVec 8))
(declare-fun dst_reg_26_16 () (_ BitVec 32))
(declare-fun dst_reg_26_15 () (_ BitVec 32))
(declare-fun dst_reg_26_14 () (_ BitVec 32))
(declare-fun dst_reg_26_13 () (_ BitVec 32))
(declare-fun dst_reg_26_12 () (_ BitVec 32))
(declare-fun dst_reg_26_1 () (_ BitVec 32))
(declare-fun dst_reg_26_0 () (_ BitVec 32))
(declare-fun cmp.not.i_26_106 () (_ BitVec 1))
(declare-fun i.i35_26_104 () (_ BitVec 32))
(declare-fun cmp2.not.i_26_109 () (_ BitVec 1))
(declare-fun i1.i_26_107 () (_ BitVec 32))
(declare-fun i361.i524.i_26_124 () (_ BitVec 64))
(declare-fun cond347.i526.i_26_126 () (_ BitVec 64))
(declare-fun add339.i522.i_26_123 () (_ BitVec 64))
(declare-fun cmp342.i525.i_26_125 () (_ BitVec 1))
(declare-fun i360.i521.i_26_121 () (_ BitVec 64))
(declare-fun sub329.i517.i_26_118 () (_ BitVec 64))
(declare-fun cond336.i519.i_26_120 () (_ BitVec 64))
(declare-fun i358.i514.i_26_115 () (_ BitVec 64))
(declare-fun cmp331.i518.i_26_119 () (_ BitVec 1))
(declare-fun i359.i516.i_26_116 () (_ BitVec 64))
(declare-fun i353.i.i_26_112 () (_ BitVec 64))
(declare-fun cond300.i.i_26_114 () (_ BitVec 64))
(declare-fun cmp295.i.i_26_113 () (_ BitVec 1))
(declare-fun cond290.i.i_26_111 () (_ BitVec 64))
(declare-fun cmp285.i.i_26_110 () (_ BitVec 1))
(declare-fun other_branch_src_reg_26_270 () (_ BitVec 8))
(declare-fun other_branch_src_reg_26_198 () (_ BitVec 8))
(declare-fun other_branch_src_reg_26_269 () (_ BitVec 32))
(declare-fun other_branch_src_reg_26_197 () (_ BitVec 32))
(declare-fun other_branch_src_reg_26_268 () (_ BitVec 32))
(declare-fun other_branch_src_reg_26_196 () (_ BitVec 32))
(declare-fun other_branch_src_reg_26_267 () (_ BitVec 32))
(declare-fun other_branch_src_reg_26_195 () (_ BitVec 32))
(declare-fun other_branch_src_reg_26_266 () (_ BitVec 32))
(declare-fun other_branch_src_reg_26_194 () (_ BitVec 32))
(declare-fun other_branch_src_reg_26_265 () (_ BitVec 32))
(declare-fun other_branch_src_reg_26_193 () (_ BitVec 32))
(declare-fun other_branch_src_reg_26_264 () (_ BitVec 32))
(declare-fun other_branch_src_reg_26_192 () (_ BitVec 32))
(declare-fun other_branch_src_reg_26_263 () (_ BitVec 32))
(declare-fun other_branch_src_reg_26_191 () (_ BitVec 32))
(declare-fun other_branch_src_reg_26_262 () (_ BitVec 32))
(declare-fun other_branch_src_reg_26_190 () (_ BitVec 32))
(declare-fun other_branch_src_reg_26_261 () (_ BitVec 32))
(declare-fun other_branch_src_reg_26_189 () (_ BitVec 32))
(declare-fun other_branch_src_reg_26_260 () (_ BitVec 64))
(declare-fun other_branch_src_reg_26_188 () (_ BitVec 64))
(declare-fun other_branch_src_reg_26_259 () (_ BitVec 64))
(declare-fun other_branch_src_reg_26_187 () (_ BitVec 64))
(declare-fun other_branch_src_reg_26_258 () (_ BitVec 64))
(declare-fun other_branch_src_reg_26_186 () (_ BitVec 64))
(declare-fun other_branch_src_reg_26_257 () (_ BitVec 64))
(declare-fun other_branch_src_reg_26_185 () (_ BitVec 64))
(declare-fun other_branch_src_reg_26_256 () (_ BitVec 64))
(declare-fun other_branch_src_reg_26_184 () (_ BitVec 64))
(declare-fun other_branch_src_reg_26_255 () (_ BitVec 64))
(declare-fun other_branch_src_reg_26_183 () (_ BitVec 64))
(declare-fun other_branch_src_reg_26_254 () (_ BitVec 32))
(declare-fun other_branch_src_reg_26_182 () (_ BitVec 32))
(declare-fun other_branch_src_reg_26_253 () (_ BitVec 32))
(declare-fun other_branch_src_reg_26_181 () (_ BitVec 32))
(declare-fun other_branch_dst_reg_26_252 () (_ BitVec 8))
(declare-fun other_branch_dst_reg_26_180 () (_ BitVec 8))
(declare-fun other_branch_dst_reg_26_251 () (_ BitVec 32))
(declare-fun other_branch_dst_reg_26_179 () (_ BitVec 32))
(declare-fun other_branch_dst_reg_26_250 () (_ BitVec 32))
(declare-fun other_branch_dst_reg_26_178 () (_ BitVec 32))
(declare-fun other_branch_dst_reg_26_249 () (_ BitVec 32))
(declare-fun other_branch_dst_reg_26_177 () (_ BitVec 32))
(declare-fun other_branch_dst_reg_26_248 () (_ BitVec 32))
(declare-fun other_branch_dst_reg_26_176 () (_ BitVec 32))
(declare-fun other_branch_dst_reg_26_247 () (_ BitVec 32))
(declare-fun other_branch_dst_reg_26_175 () (_ BitVec 32))
(declare-fun other_branch_dst_reg_26_246 () (_ BitVec 32))
(declare-fun other_branch_dst_reg_26_174 () (_ BitVec 32))
(declare-fun other_branch_dst_reg_26_245 () (_ BitVec 32))
(declare-fun other_branch_dst_reg_26_173 () (_ BitVec 32))
(declare-fun other_branch_dst_reg_26_244 () (_ BitVec 32))
(declare-fun other_branch_dst_reg_26_172 () (_ BitVec 32))
(declare-fun other_branch_dst_reg_26_243 () (_ BitVec 32))
(declare-fun other_branch_dst_reg_26_171 () (_ BitVec 32))
(declare-fun other_branch_dst_reg_26_242 () (_ BitVec 64))
(declare-fun other_branch_dst_reg_26_170 () (_ BitVec 64))
(declare-fun other_branch_dst_reg_26_241 () (_ BitVec 64))
(declare-fun other_branch_dst_reg_26_169 () (_ BitVec 64))
(declare-fun other_branch_dst_reg_26_240 () (_ BitVec 64))
(declare-fun other_branch_dst_reg_26_168 () (_ BitVec 64))
(declare-fun other_branch_dst_reg_26_239 () (_ BitVec 64))
(declare-fun other_branch_dst_reg_26_167 () (_ BitVec 64))
(declare-fun other_branch_dst_reg_26_238 () (_ BitVec 64))
(declare-fun other_branch_dst_reg_26_166 () (_ BitVec 64))
(declare-fun other_branch_dst_reg_26_237 () (_ BitVec 64))
(declare-fun other_branch_dst_reg_26_165 () (_ BitVec 64))
(declare-fun other_branch_dst_reg_26_236 () (_ BitVec 32))
(declare-fun other_branch_dst_reg_26_164 () (_ BitVec 32))
(declare-fun other_branch_dst_reg_26_235 () (_ BitVec 32))
(declare-fun other_branch_dst_reg_26_163 () (_ BitVec 32))
(declare-fun src_reg_26_234 () (_ BitVec 8))
(declare-fun src_reg_26_162 () (_ BitVec 8))
(declare-fun src_reg_26_233 () (_ BitVec 32))
(declare-fun src_reg_26_161 () (_ BitVec 32))
(declare-fun src_reg_26_232 () (_ BitVec 32))
(declare-fun src_reg_26_160 () (_ BitVec 32))
(declare-fun src_reg_26_231 () (_ BitVec 32))
(declare-fun src_reg_26_159 () (_ BitVec 32))
(declare-fun src_reg_26_230 () (_ BitVec 32))
(declare-fun src_reg_26_158 () (_ BitVec 32))
(declare-fun src_reg_26_229 () (_ BitVec 32))
(declare-fun src_reg_26_157 () (_ BitVec 32))
(declare-fun src_reg_26_228 () (_ BitVec 32))
(declare-fun src_reg_26_156 () (_ BitVec 32))
(declare-fun src_reg_26_227 () (_ BitVec 32))
(declare-fun src_reg_26_155 () (_ BitVec 32))
(declare-fun src_reg_26_226 () (_ BitVec 32))
(declare-fun src_reg_26_154 () (_ BitVec 32))
(declare-fun src_reg_26_225 () (_ BitVec 32))
(declare-fun src_reg_26_153 () (_ BitVec 32))
(declare-fun src_reg_26_224 () (_ BitVec 64))
(declare-fun src_reg_26_152 () (_ BitVec 64))
(declare-fun src_reg_26_223 () (_ BitVec 64))
(declare-fun src_reg_26_151 () (_ BitVec 64))
(declare-fun src_reg_26_222 () (_ BitVec 64))
(declare-fun src_reg_26_150 () (_ BitVec 64))
(declare-fun src_reg_26_221 () (_ BitVec 64))
(declare-fun src_reg_26_149 () (_ BitVec 64))
(declare-fun src_reg_26_220 () (_ BitVec 64))
(declare-fun src_reg_26_148 () (_ BitVec 64))
(declare-fun src_reg_26_219 () (_ BitVec 64))
(declare-fun src_reg_26_147 () (_ BitVec 64))
(declare-fun src_reg_26_218 () (_ BitVec 32))
(declare-fun src_reg_26_146 () (_ BitVec 32))
(declare-fun src_reg_26_217 () (_ BitVec 32))
(declare-fun src_reg_26_145 () (_ BitVec 32))
(declare-fun dst_reg_26_216 () (_ BitVec 8))
(declare-fun dst_reg_26_144 () (_ BitVec 8))
(declare-fun dst_reg_26_215 () (_ BitVec 32))
(declare-fun dst_reg_26_143 () (_ BitVec 32))
(declare-fun dst_reg_26_214 () (_ BitVec 32))
(declare-fun dst_reg_26_142 () (_ BitVec 32))
(declare-fun dst_reg_26_213 () (_ BitVec 32))
(declare-fun dst_reg_26_141 () (_ BitVec 32))
(declare-fun dst_reg_26_212 () (_ BitVec 32))
(declare-fun dst_reg_26_140 () (_ BitVec 32))
(declare-fun dst_reg_26_211 () (_ BitVec 32))
(declare-fun dst_reg_26_139 () (_ BitVec 32))
(declare-fun dst_reg_26_210 () (_ BitVec 32))
(declare-fun dst_reg_26_138 () (_ BitVec 32))
(declare-fun dst_reg_26_209 () (_ BitVec 32))
(declare-fun dst_reg_26_137 () (_ BitVec 32))
(declare-fun dst_reg_26_208 () (_ BitVec 32))
(declare-fun dst_reg_26_136 () (_ BitVec 32))
(declare-fun dst_reg_26_207 () (_ BitVec 32))
(declare-fun dst_reg_26_135 () (_ BitVec 32))
(declare-fun dst_reg_26_206 () (_ BitVec 64))
(declare-fun dst_reg_26_134 () (_ BitVec 64))
(declare-fun dst_reg_26_205 () (_ BitVec 64))
(declare-fun dst_reg_26_133 () (_ BitVec 64))
(declare-fun dst_reg_26_204 () (_ BitVec 64))
(declare-fun dst_reg_26_132 () (_ BitVec 64))
(declare-fun dst_reg_26_203 () (_ BitVec 64))
(declare-fun dst_reg_26_131 () (_ BitVec 64))
(declare-fun dst_reg_26_202 () (_ BitVec 64))
(declare-fun dst_reg_26_130 () (_ BitVec 64))
(declare-fun dst_reg_26_201 () (_ BitVec 64))
(declare-fun dst_reg_26_129 () (_ BitVec 64))
(declare-fun dst_reg_26_200 () (_ BitVec 32))
(declare-fun dst_reg_26_128 () (_ BitVec 32))
(declare-fun dst_reg_26_199 () (_ BitVec 32))
(declare-fun dst_reg_26_127 () (_ BitVec 32))
(assert (let ((a!1 (and (= cmp2.not.i_26_109 #b1)
                (and (= cmp.not.i_26_106 #b1) (= narrow_26_103 #b0))))
      (a!2 (and (= cmp2.not.i_26_109 #b0)
                (and (= cmp.not.i_26_106 #b1) (= narrow_26_103 #b0))))
      (a!3 (and (= i.i2_26_85 other_branch_src_reg_26_181)
                (= other_branch_src_reg_26_55 other_branch_src_reg_26_182)
                (= i21.i5_26_86 other_branch_src_reg_26_183)
                (= i22.i8_26_87 other_branch_src_reg_26_184)
                (= i23.i11_26_88 other_branch_src_reg_26_185)
                (= i24.i14_26_89 other_branch_src_reg_26_186)
                (= i25.i17_26_90 other_branch_src_reg_26_187)
                (= i26.i20_26_91 other_branch_src_reg_26_188)
                (= i27.i23_26_92 other_branch_src_reg_26_189)
                (= i28.i26_26_93 other_branch_src_reg_26_190)
                (= i29.i29_26_94 other_branch_src_reg_26_191)
                (= i30.i32_26_95 other_branch_src_reg_26_192)
                (= other_branch_src_reg_26_66 other_branch_src_reg_26_193)
                (= other_branch_src_reg_26_67 other_branch_src_reg_26_194)
                (= other_branch_src_reg_26_68 other_branch_src_reg_26_195)
                (= other_branch_src_reg_26_69 other_branch_src_reg_26_196)
                (= other_branch_src_reg_26_70 other_branch_src_reg_26_197)
                (= other_branch_src_reg_26_71 other_branch_src_reg_26_198)
                (= i.i_26_74 other_branch_dst_reg_26_163)
                (= other_branch_dst_reg_26_37 other_branch_dst_reg_26_164)
                (= i21.i_26_75 other_branch_dst_reg_26_165)
                (= i22.i_26_76 other_branch_dst_reg_26_166)
                (= i23.i_26_77 other_branch_dst_reg_26_167)
                (= i24.i_26_78 other_branch_dst_reg_26_168)
                (= i25.i_26_79 other_branch_dst_reg_26_169)
                (= i26.i_26_80 other_branch_dst_reg_26_170)
                (= i27.i_26_81 other_branch_dst_reg_26_171)
                (= i28.i_26_82 other_branch_dst_reg_26_172)
                (= i29.i_26_83 other_branch_dst_reg_26_173)
                (= i30.i_26_84 other_branch_dst_reg_26_174)
                (= other_branch_dst_reg_26_48 other_branch_dst_reg_26_175)
                (= other_branch_dst_reg_26_49 other_branch_dst_reg_26_176)
                (= other_branch_dst_reg_26_50 other_branch_dst_reg_26_177)
                (= other_branch_dst_reg_26_51 other_branch_dst_reg_26_178)
                (= other_branch_dst_reg_26_52 other_branch_dst_reg_26_179)
                (= other_branch_dst_reg_26_53 other_branch_dst_reg_26_180)
                (= #x00000001 src_reg_26_145)
                (= src_reg_26_19 src_reg_26_146)
                (= src_reg_26_20 src_reg_26_147)
                (= src_reg_26_21 src_reg_26_148)
                (= src_reg_26_22 src_reg_26_149)
                (= src_reg_26_23 src_reg_26_150)
                (= src_reg_26_24 src_reg_26_151)
                (= src_reg_26_25 src_reg_26_152)
                (= src_reg_26_26 src_reg_26_153)
                (= src_reg_26_27 src_reg_26_154)
                (= src_reg_26_28 src_reg_26_155)
                (= src_reg_26_29 src_reg_26_156)
                (= src_reg_26_30 src_reg_26_157)
                (= src_reg_26_31 src_reg_26_158)
                (= src_reg_26_32 src_reg_26_159)
                (= src_reg_26_33 src_reg_26_160)
                (= src_reg_26_34 src_reg_26_161)
                (= src_reg_26_35 src_reg_26_162)
                (= #x00000001 dst_reg_26_127)
                (= dst_reg_26_1 dst_reg_26_128)
                (= dst_reg_26_2 dst_reg_26_129)
                (= dst_reg_26_3 dst_reg_26_130)
                (= dst_reg_26_4 dst_reg_26_131)
                (= dst_reg_26_5 dst_reg_26_132)
                (= dst_reg_26_6 dst_reg_26_133)
                (= dst_reg_26_7 dst_reg_26_134)
                (= dst_reg_26_8 dst_reg_26_135)
                (= dst_reg_26_9 dst_reg_26_136)
                (= dst_reg_26_10 dst_reg_26_137)
                (= dst_reg_26_11 dst_reg_26_138)
                (= dst_reg_26_12 dst_reg_26_139)
                (= dst_reg_26_13 dst_reg_26_140)
                (= dst_reg_26_14 dst_reg_26_141)
                (= dst_reg_26_15 dst_reg_26_142)
                (= dst_reg_26_16 dst_reg_26_143)
                (= dst_reg_26_17 dst_reg_26_144)))
      (a!7 (=> (and (= cmp.not.i_26_106 #b1) (= narrow_26_103 #b0))
               (and (= #x00000001 i1.i_26_107)
                    (ite (= i1.i_26_107 #x00000001)
                         (= cmp2.not.i_26_109 #b1)
                         (= cmp2.not.i_26_109 #b0)))))
      (a!8 (=> (= narrow_26_103 #b0)
               (and (= #x00000001 i.i35_26_104)
                    (ite (= i.i35_26_104 #x00000001)
                         (= cmp.not.i_26_106 #b1)
                         (= cmp.not.i_26_106 #b0))))))
(let ((a!4 (and (=> (= narrow_26_103 #b1) a!3)
                (=> (and (= cmp.not.i_26_106 #b0) (= narrow_26_103 #b0)) a!3)
                (=> a!2 a!3)
                (=> a!1
                    (and (= i.i2_26_85 other_branch_src_reg_26_181)
                         (= other_branch_src_reg_26_55
                            other_branch_src_reg_26_182)
                         (= i21.i5_26_86 other_branch_src_reg_26_183)
                         (= i22.i8_26_87 other_branch_src_reg_26_184)
                         (= i23.i11_26_88 other_branch_src_reg_26_185)
                         (= i24.i14_26_89 other_branch_src_reg_26_186)
                         (= i25.i17_26_90 other_branch_src_reg_26_187)
                         (= cond336.i519.i_26_120 other_branch_src_reg_26_188)
                         (= i27.i23_26_92 other_branch_src_reg_26_189)
                         (= i28.i26_26_93 other_branch_src_reg_26_190)
                         (= i29.i29_26_94 other_branch_src_reg_26_191)
                         (= i30.i32_26_95 other_branch_src_reg_26_192)
                         (= other_branch_src_reg_26_66
                            other_branch_src_reg_26_193)
                         (= other_branch_src_reg_26_67
                            other_branch_src_reg_26_194)
                         (= other_branch_src_reg_26_68
                            other_branch_src_reg_26_195)
                         (= other_branch_src_reg_26_69
                            other_branch_src_reg_26_196)
                         (= other_branch_src_reg_26_70
                            other_branch_src_reg_26_197)
                         (= other_branch_src_reg_26_71
                            other_branch_src_reg_26_198)
                         (= i.i_26_74 other_branch_dst_reg_26_163)
                         (= other_branch_dst_reg_26_37
                            other_branch_dst_reg_26_164)
                         (= i21.i_26_75 other_branch_dst_reg_26_165)
                         (= i22.i_26_76 other_branch_dst_reg_26_166)
                         (= i23.i_26_77 other_branch_dst_reg_26_167)
                         (= i24.i_26_78 other_branch_dst_reg_26_168)
                         (= cond347.i526.i_26_126 other_branch_dst_reg_26_169)
                         (= i26.i_26_80 other_branch_dst_reg_26_170)
                         (= i27.i_26_81 other_branch_dst_reg_26_171)
                         (= i28.i_26_82 other_branch_dst_reg_26_172)
                         (= i29.i_26_83 other_branch_dst_reg_26_173)
                         (= i30.i_26_84 other_branch_dst_reg_26_174)
                         (= other_branch_dst_reg_26_48
                            other_branch_dst_reg_26_175)
                         (= other_branch_dst_reg_26_49
                            other_branch_dst_reg_26_176)
                         (= other_branch_dst_reg_26_50
                            other_branch_dst_reg_26_177)
                         (= other_branch_dst_reg_26_51
                            other_branch_dst_reg_26_178)
                         (= other_branch_dst_reg_26_52
                            other_branch_dst_reg_26_179)
                         (= other_branch_dst_reg_26_53
                            other_branch_dst_reg_26_180)
                         (= #x00000001 src_reg_26_145)
                         (= src_reg_26_19 src_reg_26_146)
                         (= src_reg_26_20 src_reg_26_147)
                         (= src_reg_26_21 src_reg_26_148)
                         (= src_reg_26_22 src_reg_26_149)
                         (= src_reg_26_23 src_reg_26_150)
                         (= cond300.i.i_26_114 src_reg_26_151)
                         (= src_reg_26_25 src_reg_26_152)
                         (= src_reg_26_26 src_reg_26_153)
                         (= src_reg_26_27 src_reg_26_154)
                         (= src_reg_26_28 src_reg_26_155)
                         (= src_reg_26_29 src_reg_26_156)
                         (= src_reg_26_30 src_reg_26_157)
                         (= src_reg_26_31 src_reg_26_158)
                         (= src_reg_26_32 src_reg_26_159)
                         (= src_reg_26_33 src_reg_26_160)
                         (= src_reg_26_34 src_reg_26_161)
                         (= src_reg_26_35 src_reg_26_162)
                         (= #x00000001 dst_reg_26_127)
                         (= dst_reg_26_1 dst_reg_26_128)
                         (= dst_reg_26_2 dst_reg_26_129)
                         (= dst_reg_26_3 dst_reg_26_130)
                         (= dst_reg_26_4 dst_reg_26_131)
                         (= dst_reg_26_5 dst_reg_26_132)
                         (= dst_reg_26_6 dst_reg_26_133)
                         (= cond290.i.i_26_111 dst_reg_26_134)
                         (= dst_reg_26_8 dst_reg_26_135)
                         (= dst_reg_26_9 dst_reg_26_136)
                         (= dst_reg_26_10 dst_reg_26_137)
                         (= dst_reg_26_11 dst_reg_26_138)
                         (= dst_reg_26_12 dst_reg_26_139)
                         (= dst_reg_26_13 dst_reg_26_140)
                         (= dst_reg_26_14 dst_reg_26_141)
                         (= dst_reg_26_15 dst_reg_26_142)
                         (= dst_reg_26_16 dst_reg_26_143)
                         (= dst_reg_26_17 dst_reg_26_144)))
                (= dst_reg_26_127 dst_reg_26_199)
                (= dst_reg_26_128 dst_reg_26_200)
                (= dst_reg_26_129 dst_reg_26_201)
                (= dst_reg_26_130 dst_reg_26_202)
                (= dst_reg_26_131 dst_reg_26_203)
                (= dst_reg_26_132 dst_reg_26_204)
                (= dst_reg_26_133 dst_reg_26_205)
                (= dst_reg_26_134 dst_reg_26_206)
                (= dst_reg_26_135 dst_reg_26_207)
                (= dst_reg_26_136 dst_reg_26_208)
                (= dst_reg_26_137 dst_reg_26_209)
                (= dst_reg_26_138 dst_reg_26_210)
                (= dst_reg_26_139 dst_reg_26_211)
                (= dst_reg_26_140 dst_reg_26_212)
                (= dst_reg_26_141 dst_reg_26_213)
                (= dst_reg_26_142 dst_reg_26_214)
                (= dst_reg_26_143 dst_reg_26_215)
                (= dst_reg_26_144 dst_reg_26_216)
                (= src_reg_26_145 src_reg_26_217)
                (= src_reg_26_146 src_reg_26_218)
                (= src_reg_26_147 src_reg_26_219)
                (= src_reg_26_148 src_reg_26_220)
                (= src_reg_26_149 src_reg_26_221)
                (= src_reg_26_150 src_reg_26_222)
                (= src_reg_26_151 src_reg_26_223)
                (= src_reg_26_152 src_reg_26_224)
                (= src_reg_26_153 src_reg_26_225)
                (= src_reg_26_154 src_reg_26_226)
                (= src_reg_26_155 src_reg_26_227)
                (= src_reg_26_156 src_reg_26_228)
                (= src_reg_26_157 src_reg_26_229)
                (= src_reg_26_158 src_reg_26_230)
                (= src_reg_26_159 src_reg_26_231)
                (= src_reg_26_160 src_reg_26_232)
                (= src_reg_26_161 src_reg_26_233)
                (= src_reg_26_162 src_reg_26_234)
                (= other_branch_dst_reg_26_163 other_branch_dst_reg_26_235)
                (= other_branch_dst_reg_26_164 other_branch_dst_reg_26_236)
                (= other_branch_dst_reg_26_165 other_branch_dst_reg_26_237)
                (= other_branch_dst_reg_26_166 other_branch_dst_reg_26_238)
                (= other_branch_dst_reg_26_167 other_branch_dst_reg_26_239)
                (= other_branch_dst_reg_26_168 other_branch_dst_reg_26_240)
                (= other_branch_dst_reg_26_169 other_branch_dst_reg_26_241)
                (= other_branch_dst_reg_26_170 other_branch_dst_reg_26_242)
                (= other_branch_dst_reg_26_171 other_branch_dst_reg_26_243)
                (= other_branch_dst_reg_26_172 other_branch_dst_reg_26_244)
                (= other_branch_dst_reg_26_173 other_branch_dst_reg_26_245)
                (= other_branch_dst_reg_26_174 other_branch_dst_reg_26_246)
                (= other_branch_dst_reg_26_175 other_branch_dst_reg_26_247)
                (= other_branch_dst_reg_26_176 other_branch_dst_reg_26_248)
                (= other_branch_dst_reg_26_177 other_branch_dst_reg_26_249)
                (= other_branch_dst_reg_26_178 other_branch_dst_reg_26_250)
                (= other_branch_dst_reg_26_179 other_branch_dst_reg_26_251)
                (= other_branch_dst_reg_26_180 other_branch_dst_reg_26_252)
                (= other_branch_src_reg_26_181 other_branch_src_reg_26_253)
                (= other_branch_src_reg_26_182 other_branch_src_reg_26_254)
                (= other_branch_src_reg_26_183 other_branch_src_reg_26_255)
                (= other_branch_src_reg_26_184 other_branch_src_reg_26_256)
                (= other_branch_src_reg_26_185 other_branch_src_reg_26_257)
                (= other_branch_src_reg_26_186 other_branch_src_reg_26_258)
                (= other_branch_src_reg_26_187 other_branch_src_reg_26_259)
                (= other_branch_src_reg_26_188 other_branch_src_reg_26_260)
                (= other_branch_src_reg_26_189 other_branch_src_reg_26_261)
                (= other_branch_src_reg_26_190 other_branch_src_reg_26_262)
                (= other_branch_src_reg_26_191 other_branch_src_reg_26_263)
                (= other_branch_src_reg_26_192 other_branch_src_reg_26_264)
                (= other_branch_src_reg_26_193 other_branch_src_reg_26_265)
                (= other_branch_src_reg_26_194 other_branch_src_reg_26_266)
                (= other_branch_src_reg_26_195 other_branch_src_reg_26_267)
                (= other_branch_src_reg_26_196 other_branch_src_reg_26_268)
                (= other_branch_src_reg_26_197 other_branch_src_reg_26_269)
                (= other_branch_src_reg_26_198 other_branch_src_reg_26_270)))
      (a!6 (=> a!1
               (and (ite (bvult i135.i.i_26_97 i143.i.i_26_99)
                         (= cmp285.i.i_26_110 #b1)
                         (= cmp285.i.i_26_110 #b0))
                    (ite (= cmp285.i.i_26_110 #b1)
                         (= cond290.i.i_26_111 i135.i.i_26_97)
                         (= cond290.i.i_26_111 i143.i.i_26_99))
                    (= src_reg_26_24 i353.i.i_26_112)
                    (ite (bvugt i133.i.i_26_96 i353.i.i_26_112)
                         (= cmp295.i.i_26_113 #b1)
                         (= cmp295.i.i_26_113 #b0))
                    (ite (= cmp295.i.i_26_113 #b1)
                         (= cond300.i.i_26_114 i133.i.i_26_96)
                         (= cond300.i.i_26_114 i353.i.i_26_112))
                    (= i26.i20_26_91 i358.i514.i_26_115)
                    (= i26.i_26_80 i359.i516.i_26_116)
                    (= sub329.i517.i_26_118
                       (bvadd i359.i516.i_26_116 #xffffffffffffffff))
                    (ite (bvult i358.i514.i_26_115 sub329.i517.i_26_118)
                         (= cmp331.i518.i_26_119 #b1)
                         (= cmp331.i518.i_26_119 #b0))
                    (ite (= cmp331.i518.i_26_119 #b1)
                         (= cond336.i519.i_26_120 i358.i514.i_26_115)
                         (= cond336.i519.i_26_120 sub329.i517.i_26_118))
                    (= i25.i17_26_90 i360.i521.i_26_121)
                    (= add339.i522.i_26_123
                       (bvadd i360.i521.i_26_121 #x0000000000000001))
                    (= i25.i_26_79 i361.i524.i_26_124)
                    (ite (bvugt add339.i522.i_26_123 i361.i524.i_26_124)
                         (= cmp342.i525.i_26_125 #b1)
                         (= cmp342.i525.i_26_125 #b0))
                    (ite (= cmp342.i525.i_26_125 #b1)
                         (= cond347.i526.i_26_126 add339.i522.i_26_123)
                         (= cond347.i526.i_26_126 i361.i524.i_26_124))))))
(let ((a!5 (=> (or a!1
                   a!2
                   (and (= cmp.not.i_26_106 #b0) (= narrow_26_103 #b0))
                   (= narrow_26_103 #b1))
               a!4)))
  (and a!5
       a!6
       a!7
       a!8
       (= dst_reg_26_0 dst_reg_26_0)
       (= dst_reg_26_1 dst_reg_26_1)
       (= dst_reg_26_2 dst_reg_26_2)
       (= dst_reg_26_3 dst_reg_26_3)
       (= dst_reg_26_4 dst_reg_26_4)
       (= dst_reg_26_5 dst_reg_26_5)
       (= dst_reg_26_6 dst_reg_26_6)
       (= dst_reg_26_7 dst_reg_26_7)
       (= dst_reg_26_8 dst_reg_26_8)
       (= dst_reg_26_9 dst_reg_26_9)
       (= dst_reg_26_10 dst_reg_26_10)
       (= dst_reg_26_11 dst_reg_26_11)
       (= dst_reg_26_12 dst_reg_26_12)
       (= dst_reg_26_13 dst_reg_26_13)
       (= dst_reg_26_14 dst_reg_26_14)
       (= dst_reg_26_15 dst_reg_26_15)
       (= dst_reg_26_16 dst_reg_26_16)
       (= dst_reg_26_17 dst_reg_26_17)
       (= src_reg_26_18 src_reg_26_18)
       (= src_reg_26_19 src_reg_26_19)
       (= src_reg_26_20 src_reg_26_20)
       (= src_reg_26_21 src_reg_26_21)
       (= src_reg_26_22 src_reg_26_22)
       (= src_reg_26_23 src_reg_26_23)
       (= src_reg_26_24 src_reg_26_24)
       (= src_reg_26_25 src_reg_26_25)
       (= src_reg_26_26 src_reg_26_26)
       (= src_reg_26_27 src_reg_26_27)
       (= src_reg_26_28 src_reg_26_28)
       (= src_reg_26_29 src_reg_26_29)
       (= src_reg_26_30 src_reg_26_30)
       (= src_reg_26_31 src_reg_26_31)
       (= src_reg_26_32 src_reg_26_32)
       (= src_reg_26_33 src_reg_26_33)
       (= src_reg_26_34 src_reg_26_34)
       (= src_reg_26_35 src_reg_26_35)
       (= other_branch_dst_reg_26_36 other_branch_dst_reg_26_36)
       (= other_branch_dst_reg_26_37 other_branch_dst_reg_26_37)
       (= other_branch_dst_reg_26_38 other_branch_dst_reg_26_38)
       (= other_branch_dst_reg_26_39 other_branch_dst_reg_26_39)
       (= other_branch_dst_reg_26_40 other_branch_dst_reg_26_40)
       (= other_branch_dst_reg_26_41 other_branch_dst_reg_26_41)
       (= other_branch_dst_reg_26_42 other_branch_dst_reg_26_42)
       (= other_branch_dst_reg_26_43 other_branch_dst_reg_26_43)
       (= other_branch_dst_reg_26_44 other_branch_dst_reg_26_44)
       (= other_branch_dst_reg_26_45 other_branch_dst_reg_26_45)
       (= other_branch_dst_reg_26_46 other_branch_dst_reg_26_46)
       (= other_branch_dst_reg_26_47 other_branch_dst_reg_26_47)
       (= other_branch_dst_reg_26_48 other_branch_dst_reg_26_48)
       (= other_branch_dst_reg_26_49 other_branch_dst_reg_26_49)
       (= other_branch_dst_reg_26_50 other_branch_dst_reg_26_50)
       (= other_branch_dst_reg_26_51 other_branch_dst_reg_26_51)
       (= other_branch_dst_reg_26_52 other_branch_dst_reg_26_52)
       (= other_branch_dst_reg_26_53 other_branch_dst_reg_26_53)
       (= other_branch_src_reg_26_54 other_branch_src_reg_26_54)
       (= other_branch_src_reg_26_55 other_branch_src_reg_26_55)
       (= other_branch_src_reg_26_56 other_branch_src_reg_26_56)
       (= other_branch_src_reg_26_57 other_branch_src_reg_26_57)
       (= other_branch_src_reg_26_58 other_branch_src_reg_26_58)
       (= other_branch_src_reg_26_59 other_branch_src_reg_26_59)
       (= other_branch_src_reg_26_60 other_branch_src_reg_26_60)
       (= other_branch_src_reg_26_61 other_branch_src_reg_26_61)
       (= other_branch_src_reg_26_62 other_branch_src_reg_26_62)
       (= other_branch_src_reg_26_63 other_branch_src_reg_26_63)
       (= other_branch_src_reg_26_64 other_branch_src_reg_26_64)
       (= other_branch_src_reg_26_65 other_branch_src_reg_26_65)
       (= other_branch_src_reg_26_66 other_branch_src_reg_26_66)
       (= other_branch_src_reg_26_67 other_branch_src_reg_26_67)
       (= other_branch_src_reg_26_68 other_branch_src_reg_26_68)
       (= other_branch_src_reg_26_69 other_branch_src_reg_26_69)
       (= other_branch_src_reg_26_70 other_branch_src_reg_26_70)
       (= other_branch_src_reg_26_71 other_branch_src_reg_26_71)
       (= #x00000001 i.i_26_74)
       (= dst_reg_26_2 i21.i_26_75)
       (= dst_reg_26_3 i22.i_26_76)
       (= dst_reg_26_4 i23.i_26_77)
       (= dst_reg_26_5 i24.i_26_78)
       (= dst_reg_26_6 i25.i_26_79)
       (= dst_reg_26_7 i26.i_26_80)
       (= dst_reg_26_8 i27.i_26_81)
       (= dst_reg_26_9 i28.i_26_82)
       (= dst_reg_26_10 i29.i_26_83)
       (= dst_reg_26_11 i30.i_26_84)
       (= #x00000001 i.i2_26_85)
       (= src_reg_26_20 i21.i5_26_86)
       (= src_reg_26_21 i22.i8_26_87)
       (= src_reg_26_22 i23.i11_26_88)
       (= src_reg_26_23 i24.i14_26_89)
       (= src_reg_26_24 i25.i17_26_90)
       (= src_reg_26_25 i26.i20_26_91)
       (= src_reg_26_26 i27.i23_26_92)
       (= src_reg_26_27 i28.i26_26_93)
       (= src_reg_26_28 i29.i29_26_94)
       (= src_reg_26_29 i30.i32_26_95)
       (= dst_reg_26_6 i133.i.i_26_96)
       (= dst_reg_26_7 i135.i.i_26_97)
       (= src_reg_26_24 i141.i.i_26_98)
       (= src_reg_26_25 i143.i.i_26_99)
       (ite (bvugt i133.i.i_26_96 i143.i.i_26_99)
            (= cmp192.i.i_26_100 #b1)
            (= cmp192.i.i_26_100 #b0))
       (ite (bvule i135.i.i_26_97 i141.i.i_26_98)
            (= cmp195.not.i.i_26_101 #b1)
            (= cmp195.not.i.i_26_101 #b0))
       (ite (= cmp192.i.i_26_100 #b1)
            (= narrow_26_103 #b1)
            (= narrow_26_103 cmp195.not.i.i_26_101)))))))

;{"dst_reg":["dst_reg_26_0","dst_reg_26_1",[""],["dst_reg_26_2","dst_reg_26_3"],"dst_reg_26_4","dst_reg_26_5","dst_reg_26_6","dst_reg_26_7","dst_reg_26_8","dst_reg_26_9","dst_reg_26_10","dst_reg_26_11","dst_reg_26_12","dst_reg_26_13","","","dst_reg_26_14","dst_reg_26_15","dst_reg_26_16"],"other_branch_dst_reg":["other_branch_dst_reg_26_36","other_branch_dst_reg_26_37",[""],["other_branch_dst_reg_26_38","other_branch_dst_reg_26_39"],"other_branch_dst_reg_26_40","other_branch_dst_reg_26_41","other_branch_dst_reg_26_42","other_branch_dst_reg_26_43","other_branch_dst_reg_26_44","other_branch_dst_reg_26_45","other_branch_dst_reg_26_46","other_branch_dst_reg_26_47","other_branch_dst_reg_26_48","other_branch_dst_reg_26_49","","","other_branch_dst_reg_26_50","other_branch_dst_reg_26_51","other_branch_dst_reg_26_52"],"other_branch_src_reg":["other_branch_src_reg_26_54","other_branch_src_reg_26_55",[""],["other_branch_src_reg_26_56","other_branch_src_reg_26_57"],"other_branch_src_reg_26_58","other_branch_src_reg_26_59","other_branch_src_reg_26_60","other_branch_src_reg_26_61","other_branch_src_reg_26_62","other_branch_src_reg_26_63","other_branch_src_reg_26_64","other_branch_src_reg_26_65","other_branch_src_reg_26_66","other_branch_src_reg_26_67","","","other_branch_src_reg_26_68","other_branch_src_reg_26_69","other_branch_src_reg_26_70"],"src_reg":["src_reg_26_18","src_reg_26_19",[""],["src_reg_26_20","src_reg_26_21"],"src_reg_26_22","src_reg_26_23","src_reg_26_24","src_reg_26_25","src_reg_26_26","src_reg_26_27","src_reg_26_28","src_reg_26_29","src_reg_26_30","src_reg_26_31","","","src_reg_26_32","src_reg_26_33","src_reg_26_34"]}
;{"dst_reg":["dst_reg_26_199","dst_reg_26_200",[""],["dst_reg_26_201","dst_reg_26_202"],"dst_reg_26_203","dst_reg_26_204","dst_reg_26_205","dst_reg_26_206","dst_reg_26_207","dst_reg_26_208","dst_reg_26_209","dst_reg_26_210","dst_reg_26_211","dst_reg_26_212","","","dst_reg_26_213","dst_reg_26_214","dst_reg_26_215"],"other_branch_dst_reg":["other_branch_dst_reg_26_235","other_branch_dst_reg_26_236",[""],["other_branch_dst_reg_26_237","other_branch_dst_reg_26_238"],"other_branch_dst_reg_26_239","other_branch_dst_reg_26_240","other_branch_dst_reg_26_241","other_branch_dst_reg_26_242","other_branch_dst_reg_26_243","other_branch_dst_reg_26_244","other_branch_dst_reg_26_245","other_branch_dst_reg_26_246","other_branch_dst_reg_26_247","other_branch_dst_reg_26_248","","","other_branch_dst_reg_26_249","other_branch_dst_reg_26_250","other_branch_dst_reg_26_251"],"other_branch_src_reg":["other_branch_src_reg_26_253","other_branch_src_reg_26_254",[""],["other_branch_src_reg_26_255","other_branch_src_reg_26_256"],"other_branch_src_reg_26_257","other_branch_src_reg_26_258","other_branch_src_reg_26_259","other_branch_src_reg_26_260","other_branch_src_reg_26_261","other_branch_src_reg_26_262","other_branch_src_reg_26_263","other_branch_src_reg_26_264","other_branch_src_reg_26_265","other_branch_src_reg_26_266","","","other_branch_src_reg_26_267","other_branch_src_reg_26_268","other_branch_src_reg_26_269"],"src_reg":["src_reg_26_217","src_reg_26_218",[""],["src_reg_26_219","src_reg_26_220"],"src_reg_26_221","src_reg_26_222","src_reg_26_223","src_reg_26_224","src_reg_26_225","src_reg_26_226","src_reg_26_227","src_reg_26_228","src_reg_26_229","src_reg_26_230","","","src_reg_26_231","src_reg_26_232","src_reg_26_233"]}
